<number of tasks>
20

<cycle time>
1000

<order strength>
0,5


<task times>
1 382
2 65
3 237
4 51
5 62
6 58
7 223
8 269
9 197
10 74
11 143
12 114
13 93
14 403
15 130
16 54
17 204
18 292
19 464
20 170

<precedence relations>
1,6
1,8
3,18
4,5
4,7
5,8
5,17
6,9
7,9
8,10
9,10
9,11
9,12
10,13
10,14
10,15
11,15
11,19
12,13
12,16
13,19
14,18
16,17
16,20

<end>
